SDVRP instances/custom_instances/p01_13_splitx10_0.vrp
NAME:p01_13_splitx10_
BEST_KNOWN: 0
COMMENT: 0
DIMENSION: 230
CAPACITY: 1600
EDGE_WEIGHT_FORMAT: FUNCTION
EDGE_WEIGHT_TYPE: EXACT_2D
NODE_COORD_SECTION
1 0.00000 0.00000
2 -29 -33
3 -29 -33
4 -29 -33
5 -29 -33
6 -29 -33
7 -6 24
8 -6 24
9 -6 24
10 -6 24
11 -6 24
12 4 32
13 4 32
14 4 32
15 4 32
16 4 32
17 4 32
18 26 41
19 26 41
20 26 41
21 26 41
22 -37 46
23 -37 46
24 -37 46
25 -37 46
26 -37 46
27 -37 46
28 -13 -24
29 -13 -24
30 -13 -24
31 -13 -24
32 -13 -24
33 39 -48
34 39 -48
35 39 -48
36 32 -27
37 32 -27
38 32 -27
39 32 -27
40 32 -27
41 2 19
42 2 19
43 2 19
44 2 19
45 46 39
46 46 39
47 27 -34
48 27 -34
49 27 -34
50 27 -34
51 27 -34
52 -45 -4
53 -45 -4
54 -45 -4
55 -29 27
56 -29 27
57 -29 27
58 -29 27
59 -49 25
60 -49 25
61 -30 37
62 -30 37
63 -6 -17
64 -6 -17
65 -6 -17
66 -6 -17
67 -6 -17
68 26 -25
69 26 -25
70 26 -25
71 26 -25
72 26 -25
73 26 -25
74 -39 36
75 -39 36
76 -39 36
77 -39 36
78 -39 36
79 -45 -46
80 -45 -46
81 -45 -46
82 -45 -46
83 -45 -46
84 -45 -46
85 -45 -46
86 5 -29
87 5 -29
88 5 -29
89 5 -29
90 5 -29
91 -37 31
92 -37 31
93 -37 31
94 -35 -20
95 -35 -20
96 -35 -20
97 -35 -20
98 -35 -20
99 -35 -20
100 -23 -33
101 -23 -33
102 -23 -33
103 -23 -33
104 -23 -33
105 -23 -33
106 20 -44
107 20 -44
108 20 -44
109 11 -3
110 11 -3
111 11 -3
112 11 -3
113 11 -3
114 11 -3
115 11 -3
116 -34 -34
117 -34 -34
118 -34 -34
119 -34 -34
120 45 -12
121 45 -12
122 45 -12
123 -1 -49
124 -29 39
125 -29 39
126 -29 39
127 -29 39
128 -29 39
129 -29 39
130 -16 -4
131 -16 -4
132 -16 -4
133 -16 -4
134 -16 -4
135 7 -1
136 7 -1
137 7 -1
138 -22 -7
139 -22 -7
140 -22 -7
141 -22 -7
142 -22 -7
143 -17 35
144 -17 35
145 -17 35
146 -17 35
147 -17 35
148 -17 35
149 36 47
150 36 47
151 36 47
152 36 47
153 -11 32
154 -11 32
155 -11 32
156 27 -17
157 27 -17
158 27 -17
159 27 -17
160 27 -17
161 3 7
162 3 7
163 3 7
164 3 7
165 -35 -28
166 -35 -28
167 -35 -28
168 -35 -28
169 -35 -28
170 -9 -26
171 -9 -26
172 -9 -26
173 -9 -26
174 -9 -26
175 -9 -26
176 -9 -26
177 -9 -26
178 12 17
179 12 17
180 12 17
181 12 17
182 12 17
183 12 17
184 -10 -14
185 -10 -14
186 -10 -14
187 2 26
188 2 26
189 2 26
190 2 26
191 2 26
192 2 26
193 2 26
194 -2 -12
195 -2 -12
196 -2 -12
197 -2 -12
198 -2 -12
199 5 17
200 5 17
201 5 17
202 -38 31
203 -38 31
204 -38 31
205 -38 31
206 -45 -8
207 -45 -8
208 -45 -8
209 -45 -8
210 -45 -8
211 32 17
212 32 17
213 32 17
214 32 17
215 32 17
216 0 -33
217 0 -33
218 0 -33
219 0 -33
220 0 -33
221 -27 -28
222 -27 -28
223 -27 -28
224 -27 -28
225 -27 -28
226 -27 -28
227 3 -30
228 3 -30
229 3 -30
230 3 -30
DEMAND_SECTION
1 0
2 320
3 160
4 16
5 16
6 8
7 320
8 160
9 80
10 16
11 4
12 320
13 80
14 16
15 16
16 16
17 12
18 320
19 160
20 16
21 4
22 320
23 160
24 80
25 16
26 16
27 8
28 160
29 16
30 16
31 16
32 2
33 320
34 320
35 80
36 160
37 16
38 16
39 16
40 12
41 160
42 80
43 16
44 14
45 320
46 10
47 320
48 160
49 16
50 16
51 8
52 160
53 80
54 10
55 320
56 320
57 16
58 14
59 320
60 160
61 320
62 160
63 320
64 320
65 16
66 16
67 8
68 320
69 80
70 16
71 16
72 16
73 12
74 160
75 80
76 16
77 16
78 8
79 320
80 320
81 80
82 16
83 16
84 16
85 2
86 320
87 320
88 80
89 16
90 4
91 320
92 320
93 10
94 160
95 16
96 16
97 16
98 16
99 6
100 320
101 80
102 16
103 16
104 16
105 12
106 320
107 16
108 14
109 320
110 160
111 80
112 16
113 16
114 16
115 12
116 160
117 80
118 16
119 14
120 320
121 320
122 80
123 320
124 320
125 160
126 80
127 16
128 16
129 8
130 160
131 80
132 16
133 16
134 8
135 320
136 320
137 10
138 320
139 320
140 80
141 16
142 4
143 320
144 80
145 16
146 16
147 16
148 2
149 320
150 160
151 16
152 4
153 320
154 16
155 4
156 320
157 160
158 80
159 16
160 14
161 160
162 80
163 16
164 14
165 320
166 320
167 80
168 16
169 14
170 320
171 320
172 80
173 16
174 16
175 16
176 16
177 6
178 160
179 80
180 16
181 16
182 16
183 12
184 160
185 80
186 10
187 320
188 160
189 80
190 16
191 16
192 16
193 2
194 320
195 320
196 16
197 16
198 8
199 320
200 320
201 10
202 320
203 160
204 16
205 14
206 320
207 80
208 16
209 16
210 8
211 320
212 320
213 80
214 16
215 14
216 160
217 16
218 16
219 16
220 12
221 320
222 80
223 16
224 16
225 16
226 2
227 320
228 160
229 80
230 10
DEPOT_SECTION
1
-1
EOF