SDVRP instances/custom_instances/p01_13_splitx10_0.sol
229 -4 3 1 5 2 84 80 79 81 82 78 83 118 115 116 117 -9 7 8 6 10 152 153 154 13 14 12 15 11 16 -24 22 21 25 23 26 74 73 77 75 76 204 203 92 57 56 55 54 -28 30 27 31 29 101 100 104 102 103 99 173 174 170 172 176 169 171 175 65 64 66 -41 42 40 43 192 189 186 187 191 190 188 198 199 200 -44 45 149 150 148 151 20 19 18 17 180 182 181 179 177 -53 52 51 206 208 209 207 205 137 138 141 139 140 133 132 131 130 -58 59 201 202 90 91 -60 61 127 126 123 124 128 125 145 144 147 143 142 146 -68 72 70 67 49 46 48 37 36 38 35 39 156 158 155 159 157 -71 69 50 47 33 34 32 106 107 105 122 -85 88 89 87 86 226 228 227 229 217 216 219 218 215 -110 113 112 111 108 114 109 134 136 135 -121 119 120 211 210 212 214 213 178 -129 96 97 95 94 93 98 164 165 168 167 166 221 220 222 224 223 225 -161 160 163 162 -184 185 183 63 62 194 193 197 196 195 0 





OBJ=
1532.103
BEST_KNOWN=
0.000